c pcminimize - minimizing a CNF with respect to propagation completeness by iterative removing of absorbed clauses.
c Petr Kucera, 2016-2021
c Version 2.7, revision 59, git hash 4910a71, date 2024-07-16 20:17:42 +0200
p cnf 787 2027
-227 -252 0
251 -252 0
252 -253 0
241 -253 0
-227 -254 0
155 -254 0
255 -256 0
-155 -256 0
254 256 -257 0
257 -258 0
-241 -258 0
253 258 -259 0
259 -260 0
93 -260 0
251 -262 0
261 -262 0
-227 -263 0
262 -263 0
263 -264 0
-93 -264 0
260 264 -265 0
125 -266 0
-224 -266 0
266 -267 0
215 -267 0
268 -270 0
269 -270 0
270 -271 0
-215 -271 0
267 271 -272 0
272 -273 0
234 -273 0
-224 -274 0
215 -274 0
268 -275 0
-215 -275 0
274 275 -276 0
276 -277 0
125 -277 0
277 -278 0
-234 -278 0
273 278 -279 0
123 -280 0
174 -280 0
281 -283 0
282 -283 0
265 -284 0
279 -284 0
280 -284 0
283 -284 0
284 -286 0
285 -286 0
286 -287 0
142 -287 0
288 -289 0
111 -289 0
-111 -290 0
289 290 -291 0
266 -293 0
292 -293 0
293 -294 0
215 -294 0
268 -295 0
123 -295 0
-224 -296 0
-123 -296 0
295 296 -297 0
297 -298 0
269 -298 0
298 -299 0
-215 -299 0
294 299 -300 0
300 -301 0
234 -301 0
-224 -302 0
292 -302 0
302 -303 0
215 -303 0
297 -304 0
-215 -304 0
303 304 -305 0
305 -306 0
125 -306 0
306 -307 0
-234 -307 0
301 307 -308 0
282 -309 0
174 -309 0
156 -310 0
-174 -310 0
309 310 -311 0
93 -312 0
-153 -312 0
291 -313 0
259 -313 0
308 -313 0
311 -313 0
312 -313 0
313 -314 0
-142 -314 0
287 314 -315 0
-78 -317 0
316 -317 0
317 -318 0
233 -318 0
207 -319 0
78 -319 0
316 -320 0
-78 -320 0
319 320 -321 0
321 -322 0
-233 -322 0
318 322 -323 0
2 -324 0
7 -324 0
10 -324 0
-17 -324 0
-23 -324 0
25 -324 0
-40 -324 0
-45 -324 0
-46 -324 0
47 -324 0
55 -324 0
-58 -324 0
-69 -324 0
72 -324 0
-75 -324 0
76 -324 0
-79 -324 0
-82 -324 0
86 -324 0
-91 -324 0
94 -324 0
95 -324 0
96 -324 0
-100 -324 0
102 -324 0
-105 -324 0
106 -324 0
124 -324 0
131 -324 0
139 -324 0
-145 -324 0
152 -324 0
-170 -324 0
-175 -324 0
-179 -324 0
-188 -324 0
196 -324 0
197 -324 0
-213 -324 0
-217 -324 0
-221 -324 0
222 -324 0
238 -324 0
239 -324 0
325 -331 0
326 -331 0
327 -331 0
328 -331 0
329 -331 0
330 -331 0
315 -332 0
323 -332 0
324 -332 0
331 -332 0
332 -333 0
19 -333 0
142 -334 0
174 -334 0
334 -335 0
282 -335 0
335 -336 0
153 -336 0
174 -337 0
282 -337 0
337 -338 0
142 -338 0
311 -339 0
-142 -339 0
338 339 -340 0
340 -341 0
-153 -341 0
336 341 -342 0
342 -343 0
259 -343 0
343 -344 0
93 -344 0
142 -345 0
174 -345 0
-227 -345 0
285 -346 0
282 -346 0
251 -346 0
261 -346 0
345 -347 0
346 -347 0
347 -348 0
-93 -348 0
344 348 -349 0
2 -350 0
-46 -350 0
-91 -350 0
124 -350 0
131 -350 0
234 -350 0
350 -351 0
269 -351 0
351 -352 0
86 -352 0
-46 -353 0
131 -353 0
354 -355 0
-131 -355 0
353 355 -356 0
91 -357 0
125 -357 0
-234 -357 0
356 -359 0
357 -359 0
358 -359 0
359 -361 0
360 -361 0
361 -362 0
-86 -362 0
352 362 -363 0
123 -364 0
-215 -364 0
349 -365 0
363 -365 0
364 -365 0
365 -366 0
224 -366 0
123 -367 0
174 -367 0
265 -368 0
367 -368 0
282 -368 0
368 -369 0
285 -369 0
369 -370 0
142 -370 0
259 -371 0
311 -371 0
312 -371 0
371 -372 0
292 -372 0
372 -373 0
-142 -373 0
370 373 -374 0
125 -375 0
215 -375 0
269 -376 0
-215 -376 0
375 376 -377 0
2 -378 0
-46 -378 0
86 -378 0
-91 -378 0
124 -378 0
131 -378 0
377 -379 0
378 -379 0
379 -380 0
234 -380 0
-86 -381 0
91 -381 0
125 -381 0
360 -383 0
358 -383 0
382 -383 0
356 -384 0
381 -384 0
383 -384 0
384 -385 0
-234 -385 0
380 385 -386 0
374 -387 0
386 -387 0
387 -388 0
-224 -388 0
366 388 -389 0
7 -390 0
10 -390 0
-17 -390 0
-23 -390 0
25 -390 0
-40 -390 0
-45 -390 0
47 -390 0
55 -390 0
-58 -390 0
-69 -390 0
-75 -390 0
76 -390 0
-79 -390 0
-82 -390 0
94 -390 0
95 -390 0
96 -390 0
-100 -390 0
102 -390 0
-105 -390 0
106 -390 0
-111 -390 0
139 -390 0
-145 -390 0
152 -390 0
-170 -390 0
-175 -390 0
-179 -390 0
196 -390 0
197 -390 0
-213 -390 0
-217 -390 0
-221 -390 0
222 -390 0
238 -390 0
239 -390 0
325 -391 0
326 -391 0
327 -391 0
328 -391 0
329 -391 0
330 -391 0
389 -392 0
323 -392 0
390 -392 0
391 -392 0
392 -393 0
-19 -393 0
114 -395 0
-132 -395 0
-212 -395 0
394 -397 0
396 -397 0
191 -404 0
-17 -405 0
-213 -405 0
238 -405 0
405 -406 0
46 -406 0
-213 -408 0
407 -408 0
408 -409 0
238 -409 0
17 -411 0
410 -411 0
411 -412 0
-238 -412 0
409 412 -413 0
413 -414 0
-46 -414 0
406 414 -415 0
415 -416 0
259 -416 0
416 -418 0
417 -418 0
418 -419 0
7 -419 0
-17 -420 0
40 -420 0
-213 -420 0
-227 -420 0
238 -420 0
241 -420 0
354 -421 0
251 -421 0
420 -422 0
421 -422 0
422 -423 0
-7 -423 0
419 423 -424 0
326 -425 0
196 -425 0
143 -426 0
-196 -426 0
425 426 -427 0
25 -428 0
94 -428 0
429 -430 0
-94 -430 0
428 430 -431 0
-45 -432 0
55 -432 0
-145 -432 0
222 -432 0
360 -434 0
433 -434 0
427 -435 0
311 -435 0
431 -435 0
432 -435 0
434 -435 0
435 -436 0
327 -436 0
436 -437 0
95 -437 0
222 -438 0
132 -438 0
439 -440 0
-132 -440 0
438 440 -441 0
441 -442 0
326 -442 0
442 -443 0
196 -443 0
143 -444 0
433 -444 0
439 -444 0
444 -445 0
-196 -445 0
443 445 -446 0
2 -447 0
45 -447 0
-55 -447 0
-94 -447 0
174 -447 0
429 -448 0
282 -448 0
446 -449 0
447 -449 0
448 -449 0
449 -450 0
145 -450 0
431 -451 0
-45 -451 0
451 -452 0
55 -452 0
25 -453 0
-45 -453 0
453 -454 0
94 -454 0
429 -456 0
455 -456 0
456 -457 0
-94 -457 0
454 457 -458 0
458 -459 0
-55 -459 0
452 459 -460 0
460 -461 0
427 -461 0
311 -461 0
222 -461 0
433 -461 0
461 -462 0
360 -462 0
462 -463 0
-145 -463 0
450 463 -464 0
464 -465 0
-119 -465 0
465 -466 0
-95 -466 0
437 466 -467 0
424 -468 0
467 -468 0
468 -469 0
47 -469 0
-241 -470 0
255 -470 0
470 -471 0
138 -471 0
-227 -472 0
241 -472 0
255 -473 0
-241 -473 0
472 473 -474 0
474 -475 0
-138 -475 0
471 475 -476 0
-132 -477 0
326 -477 0
477 -478 0
196 -478 0
143 -479 0
433 -479 0
479 -480 0
-196 -480 0
478 480 -481 0
-213 -482 0
238 -482 0
410 -483 0
-238 -483 0
482 483 -484 0
2 -485 0
7 -485 0
17 -485 0
45 -485 0
-46 -485 0
-55 -485 0
-94 -485 0
-95 -485 0
-119 -485 0
145 -485 0
-155 -485 0
174 -485 0
-222 -485 0
417 -486 0
429 -486 0
282 -486 0
476 -487 0
481 -487 0
484 -487 0
485 -487 0
486 -487 0
487 -488 0
-47 -488 0
469 488 -489 0
96 -490 0
100 -490 0
-221 -490 0
490 -492 0
491 -492 0
492 -493 0
69 -493 0
-221 -495 0
494 -495 0
495 -496 0
96 -496 0
-100 -498 0
497 -498 0
498 -499 0
-96 -499 0
496 499 -500 0
500 -501 0
76 -501 0
501 -502 0
-69 -502 0
493 502 -503 0
-75 -504 0
-105 -504 0
106 -504 0
-170 -504 0
-175 -504 0
-224 -504 0
489 -505 0
503 -505 0
504 -505 0
505 -506 0
239 -506 0
446 -507 0
75 -507 0
427 -508 0
222 -508 0
433 -508 0
508 -509 0
-75 -509 0
507 509 -510 0
2 -511 0
105 -511 0
511 -512 0
175 -512 0
513 -514 0
360 -514 0
514 -515 0
-175 -515 0
512 515 -516 0
510 -517 0
516 -517 0
-224 -517 0
517 -518 0
106 -518 0
222 -519 0
-224 -519 0
519 -520 0
132 -520 0
-224 -521 0
222 -521 0
268 -522 0
-222 -522 0
521 522 -523 0
523 -524 0
-132 -524 0
520 524 -525 0
525 -526 0
196 -526 0
523 -527 0
433 -527 0
527 -528 0
-196 -528 0
526 528 -529 0
529 -530 0
75 -530 0
433 -532 0
531 -532 0
519 -533 0
532 -533 0
533 -534 0
-75 -534 0
530 534 -535 0
2 -536 0
105 -536 0
143 -536 0
175 -536 0
535 -537 0
536 -537 0
537 -538 0
-106 -538 0
518 538 -539 0
119 -540 0
170 -540 0
327 -541 0
-170 -541 0
540 541 -542 0
-45 -543 0
55 -543 0
-145 -543 0
539 -544 0
542 -544 0
311 -544 0
431 -544 0
543 -544 0
544 -545 0
95 -545 0
-224 -547 0
546 -547 0
547 -549 0
433 -549 0
531 -549 0
548 -549 0
549 -550 0
222 -550 0
-224 -551 0
106 -551 0
268 -552 0
-106 -552 0
551 552 -553 0
-132 -554 0
196 -554 0
433 -555 0
-196 -555 0
554 555 -556 0
553 -557 0
556 -557 0
75 -557 0
557 -558 0
-222 -558 0
550 558 -559 0
559 -560 0
143 -560 0
441 -561 0
75 -561 0
222 -562 0
433 -562 0
562 -563 0
-75 -563 0
561 563 -564 0
106 -565 0
196 -565 0
-224 -565 0
564 -566 0
565 -566 0
566 -567 0
-143 -567 0
560 567 -568 0
2 -569 0
105 -569 0
-145 -569 0
568 -570 0
460 -570 0
311 -570 0
569 -570 0
570 -571 0
175 -571 0
429 -572 0
282 -572 0
446 -573 0
447 -573 0
572 -573 0
573 -574 0
548 -574 0
574 -575 0
145 -575 0
510 -576 0
460 -576 0
311 -576 0
576 -577 0
360 -577 0
577 -578 0
-145 -578 0
575 578 -579 0
106 -580 0
-224 -580 0
579 -581 0
580 -581 0
581 -582 0
513 -582 0
582 -583 0
-175 -583 0
571 583 -584 0
-119 -585 0
584 -586 0
585 -586 0
586 -587 0
-95 -587 0
545 587 -588 0
424 -589 0
588 -589 0
589 -590 0
47 -590 0
553 -591 0
143 -591 0
580 -592 0
-143 -592 0
591 592 -593 0
593 -594 0
-132 -594 0
594 -595 0
196 -595 0
553 -596 0
143 -596 0
596 -597 0
433 -597 0
597 -598 0
-196 -598 0
595 598 -599 0
2 -600 0
75 -600 0
105 -600 0
-145 -600 0
599 -601 0
311 -601 0
458 -601 0
600 -601 0
601 -602 0
175 -602 0
2 -603 0
45 -603 0
-94 -603 0
174 -603 0
429 -604 0
282 -604 0
603 -605 0
604 -605 0
605 -606 0
548 -606 0
606 -607 0
145 -607 0
458 -608 0
311 -608 0
75 -608 0
608 -609 0
360 -609 0
609 -610 0
-145 -610 0
607 610 -611 0
481 -612 0
611 -612 0
580 -612 0
612 -613 0
513 -613 0
613 -614 0
-175 -614 0
602 614 -615 0
7 -616 0
17 -616 0
-46 -616 0
-55 -616 0
-95 -616 0
-119 -616 0
-155 -616 0
-222 -616 0
615 -617 0
484 -617 0
474 -617 0
616 -617 0
417 -617 0
617 -618 0
-47 -618 0
590 618 -619 0
-69 -620 0
76 -620 0
-96 -620 0
-100 -620 0
619 -621 0
620 -621 0
497 -621 0
621 -622 0
-239 -622 0
506 622 -623 0
-4 -624 0
-10 -624 0
23 -624 0
34 -624 0
-78 -624 0
-79 -624 0
-82 -624 0
93 -624 0
-102 -624 0
-123 -624 0
125 -624 0
-131 -624 0
-139 -624 0
-142 -624 0
-153 -624 0
179 -624 0
197 -624 0
217 -624 0
233 -624 0
396 -626 0
316 -626 0
330 -626 0
625 -626 0
328 -626 0
623 -627 0
624 -627 0
626 -627 0
627 -628 0
58 -629 0
-114 -629 0
-215 -629 0
628 -630 0
629 -630 0
630 -631 0
-111 -632 0
631 -633 0
632 -633 0
633 -634 0
634 -635 0
21 -635 0
636 -637 0
82 -637 0
197 -638 0
-82 -638 0
637 638 -639 0
40 -640 0
76 -640 0
78 -640 0
207 -640 0
-233 -640 0
639 -641 0
640 -641 0
641 -642 0
79 -642 0
-82 -643 0
197 -643 0
323 -644 0
643 -644 0
644 -645 0
491 -645 0
417 -645 0
645 -646 0
-79 -646 0
642 646 -647 0
415 -648 0
259 -648 0
647 -648 0
648 -649 0
7 -649 0
76 -650 0
78 -650 0
207 -650 0
-233 -650 0
639 -651 0
650 -651 0
651 -652 0
79 -652 0
323 -653 0
643 -653 0
653 -654 0
491 -654 0
654 -655 0
-79 -655 0
652 655 -656 0
354 -657 0
251 -657 0
656 -658 0
420 -658 0
657 -658 0
658 -659 0
-7 -659 0
649 659 -660 0
329 -661 0
10 -661 0
34 -662 0
-10 -662 0
661 662 -663 0
-4 -664 0
93 -664 0
96 -664 0
100 -664 0
-102 -664 0
-123 -664 0
-139 -664 0
-142 -664 0
-153 -664 0
217 -664 0
-221 -664 0
-224 -664 0
660 -665 0
311 -665 0
663 -665 0
664 -665 0
665 -666 0
69 -666 0
257 -667 0
93 -667 0
-227 -668 0
251 -668 0
668 -669 0
-93 -669 0
667 669 -670 0
123 -671 0
174 -671 0
-241 -671 0
268 -672 0
282 -672 0
670 -673 0
671 -673 0
672 -673 0
673 -674 0
285 -674 0
674 -675 0
142 -675 0
259 -676 0
297 -676 0
311 -676 0
312 -676 0
676 -677 0
-142 -677 0
675 677 -678 0
7 -679 0
10 -679 0
-17 -679 0
-40 -679 0
-79 -679 0
-82 -679 0
96 -679 0
-100 -679 0
139 -679 0
197 -679 0
-213 -679 0
-221 -679 0
238 -679 0
329 -680 0
354 -680 0
325 -680 0
678 -681 0
323 -681 0
679 -681 0
680 -681 0
681 -683 0
682 -683 0
683 -684 0
102 -684 0
40 -685 0
78 -685 0
82 -685 0
207 -685 0
-233 -685 0
685 -686 0
636 -686 0
686 -687 0
79 -687 0
323 -688 0
643 -688 0
688 -689 0
417 -689 0
689 -690 0
-79 -690 0
687 690 -691 0
7 -692 0
10 -692 0
96 -692 0
-100 -692 0
123 -692 0
139 -692 0
174 -692 0
-221 -692 0
-241 -692 0
329 -693 0
268 -693 0
325 -693 0
282 -693 0
415 -694 0
691 -694 0
670 -694 0
692 -694 0
693 -694 0
694 -695 0
285 -695 0
695 -696 0
142 -696 0
40 -697 0
78 -697 0
207 -697 0
-233 -697 0
639 -698 0
697 -698 0
698 -699 0
79 -699 0
323 -700 0
643 -700 0
700 -701 0
417 -701 0
701 -702 0
-79 -702 0
699 702 -703 0
415 -704 0
259 -704 0
703 -704 0
704 -705 0
7 -705 0
78 -706 0
207 -706 0
-233 -706 0
639 -707 0
706 -707 0
707 -708 0
79 -708 0
323 -709 0
643 -709 0
709 -710 0
-79 -710 0
708 710 -711 0
354 -712 0
251 -712 0
711 -713 0
420 -713 0
712 -713 0
713 -714 0
-7 -714 0
705 714 -715 0
10 -716 0
96 -716 0
-100 -716 0
-221 -716 0
297 -717 0
716 -717 0
329 -717 0
717 -718 0
325 -718 0
718 -719 0
139 -719 0
-4 -720 0
-123 -720 0
-224 -720 0
500 -721 0
663 -721 0
720 -721 0
721 -722 0
-139 -722 0
719 722 -723 0
93 -724 0
-153 -724 0
715 -725 0
723 -725 0
311 -725 0
724 -725 0
725 -726 0
-142 -726 0
696 726 -727 0
727 -728 0
217 -728 0
728 -729 0
-102 -729 0
684 729 -730 0
730 -731 0
76 -731 0
731 -732 0
-69 -732 0
666 732 -733 0
-132 -734 0
114 -734 0
433 -735 0
-114 -735 0
734 735 -736 0
47 -737 0
-75 -737 0
-105 -737 0
106 -737 0
-170 -737 0
-175 -737 0
222 -737 0
326 -738 0
327 -738 0
360 -738 0
733 -739 0
736 -739 0
737 -739 0
738 -739 0
739 -740 0
239 -740 0
2 -741 0
-10 -741 0
34 -741 0
105 -741 0
741 -742 0
175 -742 0
663 -743 0
513 -743 0
360 -743 0
743 -744 0
-175 -744 0
742 744 -745 0
564 -746 0
745 -746 0
-224 -746 0
746 -747 0
326 -747 0
747 -748 0
106 -748 0
525 -749 0
75 -749 0
519 -750 0
433 -750 0
750 -751 0
-75 -751 0
749 751 -752 0
2 -753 0
-10 -753 0
34 -753 0
105 -753 0
143 -753 0
175 -753 0
752 -754 0
753 -754 0
754 -755 0
-106 -755 0
748 755 -756 0
-4 -757 0
47 -757 0
-69 -757 0
76 -757 0
93 -757 0
-96 -757 0
-100 -757 0
-102 -757 0
-114 -757 0
-123 -757 0
-139 -757 0
-142 -757 0
-153 -757 0
217 -757 0
715 -758 0
756 -758 0
311 -758 0
542 -758 0
757 -758 0
497 -758 0
758 -759 0
-239 -759 0
740 759 -760 0
23 -761 0
125 -761 0
-131 -761 0
-145 -761 0
179 -761 0
396 -762 0
330 -762 0
625 -762 0
328 -762 0
760 -763 0
431 -763 0
761 -763 0
762 -763 0
763 -764 0
-45 -765 0
55 -765 0
58 -765 0
95 -765 0
-111 -765 0
196 -765 0
-215 -765 0
764 -766 0
765 -766 0
766 -767 0
-21 -767 0
-86 -769 0
91 -769 0
-154 -769 0
-234 -769 0
768 -770 0
-124 -777 0
-191 -779 0
780 -781 0
-1 0
-3 0
-5 0
-6 0
8 0
-11 0
-12 0
13 0
-14 0
-15 0
-16 0
-18 0
20 0
-22 0
24 0
-26 0
-27 0
-28 0
29 0
-30 0
31 0
-32 0
33 0
-35 0
-36 0
37 0
38 0
39 0
-41 0
42 0
-43 0
-44 0
-48 0
49 0
50 0
51 0
52 0
-53 0
54 0
56 0
57 0
59 0
-60 0
61 0
-62 0
63 0
-64 0
65 0
66 0
67 0
68 0
-70 0
-71 0
73 0
-74 0
77 0
81 0
83 0
84 0
-85 0
87 0
-88 0
89 0
-90 0
-92 0
-97 0
-98 0
99 0
-101 0
103 0
-104 0
107 0
108 0
109 0
-110 0
113 0
115 0
116 0
117 0
-118 0
120 0
-121 0
-122 0
126 0
-127 0
-128 0
-129 0
-130 0
-133 0
134 0
135 0
136 0
-137 0
-140 0
141 0
144 0
-146 0
-147 0
148 0
-149 0
-150 0
151 0
-157 0
158 0
-159 0
-160 0
-161 0
-162 0
163 0
-164 0
-165 0
166 0
167 0
168 0
-169 0
171 0
172 0
-173 0
176 0
177 0
178 0
-180 0
-181 0
182 0
-183 0
-184 0
185 0
186 0
-187 0
-189 0
-190 0
-193 0
194 0
195 0
-198 0
199 0
200 0
-201 0
202 0
203 0
-204 0
205 0
206 0
208 0
209 0
210 0
-211 0
-214 0
216 0
218 0
-219 0
-220 0
223 0
225 0
-226 0
-228 0
229 0
230 0
231 0
-232 0
-235 0
236 0
-237 0
240 0
-242 0
-243 0
-244 0
-245 0
-246 0
247 0
248 0
-249 0
-250 0
-785 786 0
-778 779 0
-167 781 0
-777 778 0
-776 778 0
-772 773 0
-769 770 0
154 769 0
-768 770 0
-766 767 0
-765 766 0
-764 766 0
-763 764 0
-762 763 0
-760 763 0
-758 759 0
-757 758 0
-756 758 0
-755 756 0
-754 755 0
-752 754 0
-751 752 0
-750 751 0
-747 748 0
-745 746 0
-744 745 0
-738 739 0
-737 739 0
-736 739 0
-733 739 0
-730 731 0
-723 725 0
-719 723 0
-718 719 0
-717 718 0
-716 717 0
-714 715 0
-712 713 0
-709 710 0
-708 711 0
-705 715 0
-704 705 0
-701 702 0
-696 727 0
-695 696 0
-689 690 0
-688 689 0
-786 787 0
-686 687 0
-679 681 0
-678 681 0
-676 677 0
-675 678 0
-673 674 0
-672 673 0
-671 673 0
-670 673 694 0
-669 670 0
-665 666 0
-663 665 721 743 0
-662 663 0
-659 660 0
-658 659 0
-657 658 0
-655 656 0
-653 654 0
-652 656 0
-650 651 0
-649 660 0
-646 647 0
-645 646 0
-644 645 0
-643 644 653 688 700 709 0
-641 642 0
-639 641 651 698 707 0
-637 639 0
-82 637 685 0
-636 637 686 0
-21 635 0
-629 630 0
-626 627 0
152 625 0
-217 624 664 682 728 757 0
139 624 664 722 757 0
102 624 664 729 757 0
-623 627 0
-711 713 0
-622 623 0
-621 622 0
-620 621 0
-619 621 0
-617 618 0
-614 615 0
-613 614 0
-179 624 761 0
-612 613 0
-611 612 0
-610 611 0
-606 607 0
-605 606 0
-690 691 0
-604 605 0
-603 605 0
-602 615 0
-601 602 0
-596 597 0
-595 599 0
-593 594 0
-592 593 0
-591 593 0
-590 619 0
-589 590 0
-783 784 0
-587 588 0
-586 587 0
-585 586 0
-584 586 0
-782 783 0
-583 584 0
-668 669 0
-582 583 0
-580 581 592 612 0
-579 581 0
-578 579 0
-576 577 0
-574 575 0
-570 571 0
-568 570 0
-565 566 0
-564 566 746 0
-563 564 0
-561 564 0
-560 568 0
-559 560 0
-555 556 0
-554 556 0
-553 557 591 596 0
-552 553 0
-759 760 0
-548 549 574 606 0
-647 648 0
-547 549 0
-546 547 0
-545 588 0
-746 747 0
-544 545 0
-543 544 0
-540 542 0
-170 540 0
-539 544 0
-538 539 0
-677 678 0
106 538 546 552 755 0
-537 538 0
-536 537 0
-535 537 0
-534 535 0
-735 736 0
-533 534 0
-734 736 0
-532 533 0
-531 532 549 0
-529 530 0
-729 730 0
-524 525 0
-683 684 0
-523 524 527 0
-682 683 0
-522 523 0
-684 730 0
-520 525 0
-519 520 533 750 0
-518 539 0
-515 516 0
-514 515 0
-513 514 582 613 743 0
-175 512 536 571 602 742 753 0
-511 512 0
-105 511 513 536 569 600 741 753 0
-509 510 0
-508 509 0
-507 510 0
-75 507 530 548 557 561 600 608 749 0
-505 506 0
-504 505 0
-503 505 0
-501 502 0
-500 501 721 0
-499 500 0
-699 703 0
-497 498 621 758 0
-703 704 0
-496 500 0
-345 347 0
-393 394 0
-343 344 0
-624 627 0
-727 728 0
-342 343 0
-341 342 0
-784 785 0
-616 617 0
-45 447 455 485 603 0
-633 634 0
-416 418 0
-337 338 0
-631 633 0
-512 516 0
-414 415 0
-334 335 0
-279 284 0
-412 413 0
-329 331 391 661 680 693 717 0
-461 462 0
34 329 0
9 328 0
4 325 624 664 720 757 0
-753 754 0
-542 544 758 0
-324 332 0
-609 610 0
175 324 390 504 515 583 614 737 744 0
-700 701 0
-371 372 0
-692 694 0
-239 324 390 506 740 0
-347 348 0
-238 324 390 405 409 420 482 679 0
-401 403 0
-426 427 0
-485 487 0
-222 324 390 432 438 439 461 508 519 521 550 562 737 0
217 324 390 682 0
-125 266 269 277 306 357 375 381 624 761 0
-664 665 0
-530 535 0
-666 733 0
-526 529 0
-350 351 0
-594 595 0
188 324 0
-572 573 0
-96 324 390 490 496 664 679 692 716 0
-597 598 0
170 324 390 504 541 585 616 737 0
-78 319 640 650 685 697 706 0
-742 745 0
-638 639 0
75 324 390 504 509 534 548 563 737 751 0
-434 435 0
-69 493 666 0
-40 417 420 640 685 697 0
-444 445 0
-517 518 0
-340 341 0
-336 342 0
-634 635 0
-338 340 0
-421 422 0
196 426 445 480 528 531 555 598 0
-139 324 390 679 692 719 0
-722 723 0
-271 272 0
-131 324 350 353 378 0
-618 619 0
-740 760 0
-656 658 0
-215 267 274 294 303 375 382 0
-648 649 0
-390 392 0
-106 324 390 504 518 546 551 565 580 737 748 0
100 324 390 494 498 620 679 692 716 757 0
-267 272 0
91 324 350 378 0
-86 324 352 378 0
93 264 348 669 0
-651 652 0
82 324 390 624 638 643 679 0
79 324 390 624 646 655 679 690 702 710 0
-355 356 0
179 324 390 0
-743 744 0
-76 324 390 491 501 620 640 650 731 757 0
-732 733 0
-528 529 0
69 324 390 502 620 732 757 0
-331 332 0
58 324 390 0
-495 496 0
-55 324 390 432 452 543 765 0
-693 694 0
-47 324 390 469 590 737 757 0
-562 563 0
-270 271 0
94 430 447 457 485 603 0
143 326 567 592 0
-287 315 0
-327 331 391 436 541 738 0
-283 284 0
-607 611 0
-207 316 319 640 650 685 697 706 0
-361 362 0
-691 694 0
-174 280 309 334 337 345 367 447 485 603 671 692 0
-111 281 289 0
234 278 307 357 385 769 0
-424 468 589 0
145 324 390 432 463 543 569 578 600 610 761 0
-255 256 470 473 0
-452 460 0
-276 277 0
-770 771 0
-152 324 390 625 0
-377 379 0
-460 461 570 576 0
-273 279 0
-420 422 658 713 0
-339 340 0
-192 396 0
-411 412 0
125 269 0
23 324 390 0
-775 776 0
156 282 0
-272 273 0
-457 458 0
-376 377 0
-442 443 0
215 271 275 299 304 364 376 382 629 765 0
-502 503 0
-123 280 292 295 364 367 671 692 0
-143 326 426 444 479 536 560 591 596 753 0
-269 270 298 351 376 0
-284 286 0
-119 327 540 0
-285 286 346 369 674 695 0
-23 624 761 0
-264 265 0
-299 300 0
46 324 350 353 354 378 414 485 616 0
10 624 662 741 753 0
-257 258 667 0
-265 284 368 0
76 491 0
-346 347 0
-640 641 0
-256 257 0
-415 416 648 694 704 0
-335 336 0
227 252 254 255 263 345 420 472 668 0
-771 773 0
-382 383 0
-275 276 0
-458 459 601 608 0
-720 721 0
-34 329 624 662 741 753 0
-660 665 0
-224 268 366 0
-405 406 0
-153 285 336 0
-726 727 0
-392 393 0
-674 675 0
-599 601 0
241 258 261 470 473 671 692 0
105 324 390 504 513 737 0
-293 294 0
-262 263 0
207 316 0
-698 699 0
-155 251 254 0
-378 379 0
-316 317 320 626 0
-124 324 350 358 378 0
-315 332 0
-241 253 261 420 472 0
-724 725 0
-774 775 0
-95 324 390 437 545 765 0
-278 279 0
-588 589 0
-10 324 390 661 679 692 716 0
2 360 0
-721 722 0
-406 415 0
-364 365 0
-409 413 0
213 324 390 405 408 410 420 482 679 0
-307 308 0
-294 300 0
-266 267 293 0
-112 330 0
-300 301 0
-741 742 0
-447 449 573 0
-263 264 0
-298 299 0
-430 431 0
-4 325 0
155 251 256 485 616 0
-773 774 0
-459 460 0
-277 278 0
-274 276 0
-379 380 0
-258 259 0
-481 487 612 0
-280 284 0
-473 474 0
-19 333 0
-260 265 0
-360 361 383 434 462 514 577 609 738 743 0
-261 262 346 0
-600 601 0
45 324 390 432 451 453 455 543 765 0
-197 324 390 624 636 638 643 679 0
-290 291 0
-506 623 0
-317 318 0
-550 559 0
-370 374 0
-694 695 0
174 310 0
-234 273 301 350 380 0
-394 397 0
-252 253 0
-654 655 0
-615 617 0
-286 287 0
-142 287 334 338 345 370 675 696 0
-477 478 0
-710 711 0
-91 357 381 769 0
-749 752 0
-251 252 262 346 421 657 668 712 0
-80 288 0
-72 324 0
-253 259 0
-551 553 0
142 314 339 373 624 664 677 726 757 0
-302 303 0
-227 255 0
123 292 296 624 664 720 757 0
-488 489 0
-156 282 310 0
-291 313 0
-608 609 0
-301 308 0
-573 574 0
-288 289 0
-303 305 0
-268 270 275 295 522 552 672 693 0
-138 471 0
-365 366 0
-282 283 309 335 337 346 368 448 486 572 604 672 693 0
-93 260 312 344 624 664 667 724 757 0
-687 691 0
112 330 0
-680 681 0
-289 291 0
-305 306 0
-372 373 0
-556 557 0
-309 311 0
-178 402 769 0
-625 626 762 0
-490 492 0
-308 313 0
-296 297 0
-310 311 0
-25 324 390 428 429 453 0
-575 579 0
-311 313 339 371 435 461 544 570 576 601 608 665 676 725 758 0
-667 670 0
-325 331 391 680 693 718 0
-320 321 0
-58 629 765 0
-313 314 0
-767 768 0
-375 377 0
90 395 777 0
78 317 320 624 0
-713 714 0
-319 321 0
-233 318 624 0
-627 628 0
-318 323 0
224 266 268 274 296 302 388 504 517 519 521 547 551 565 580 664 720 746 0
-321 322 0
-558 559 0
-451 452 0
-306 307 0
-322 323 0
-323 332 392 644 653 681 688 700 709 0
-102 324 390 684 0
-642 647 0
-281 283 0
-725 726 0
-516 517 0
221 324 390 490 495 497 664 679 692 716 0
-9 328 0
-373 374 0
119 327 465 485 585 616 0
197 636 0
-525 526 749 0
-348 349 0
-352 363 0
-353 356 0
-46 354 406 0
-354 355 421 657 680 712 0
-2 324 350 360 378 447 485 511 536 569 600 603 741 753 0
131 355 624 761 0
-435 436 0
-356 359 384 0
-357 359 0
-408 409 0
124 358 777 0
-358 359 383 0
-359 361 0
86 362 381 769 0
-362 363 0
-363 365 0
-489 505 0
-462 463 0
-367 368 0
-439 440 444 0
-479 480 0
-79 642 652 687 699 708 0
-368 369 0
-541 542 0
-369 370 0
-449 450 0
-374 387 0
153 285 312 341 624 664 724 757 0
-380 386 0
-381 384 0
-567 568 0
-383 384 0
-384 385 0
-385 386 0
-450 464 0
-386 387 0
-387 388 0
-463 464 0
95 466 485 587 616 0
-391 392 0
-259 260 313 343 371 416 648 676 704 0
-685 686 0
238 412 483 0
-549 550 0
-484 487 617 0
-731 732 0
-527 528 0
-349 365 0
-728 729 0
-521 523 0
-297 298 304 676 717 0
-397 398 0
-196 324 390 425 443 478 526 531 554 565 595 765 0
-344 349 0
-433 434 444 461 479 508 527 532 549 555 562 597 735 750 0
-598 599 0
-468 469 0
233 322 640 650 685 697 706 0
-400 401 0
-697 698 0
-476 487 0
-314 315 0
-7 324 390 419 485 616 649 679 692 705 0
-295 297 0
-398 400 0
-566 567 0
-389 392 0
-436 437 0
-114 395 734 0
-681 683 0
-475 476 0
-117 395 772 0
-702 703 0
-498 499 0
-748 756 0
212 395 0
-715 725 758 0
-628 630 0
-410 411 483 0
-441 442 561 0
132 395 433 440 477 524 554 594 734 0
-351 352 0
-418 419 0
-254 257 0
-569 570 0
-577 578 0
-395 397 0
-326 331 391 425 442 477 738 747 0
192 396 0
-100 490 494 664 0
-557 558 0
-443 446 0
-33 399 0
-304 305 0
-487 488 0
-510 517 576 0
-332 333 0
-94 324 390 428 454 0
-403 404 0
-17 407 411 485 616 0
-407 408 0
-661 663 0
-453 454 0
-213 410 0
-482 484 0
-417 418 486 617 645 689 701 0
-419 424 0
47 488 618 0
-422 423 0
96 499 620 757 0
-312 313 371 676 0
7 423 659 714 0
40 324 390 417 679 0
-423 424 0
-425 427 0
-427 435 461 508 0
-428 431 0
-707 708 0
25 429 0
-429 430 448 456 486 572 604 0
-739 740 0
-431 435 451 544 763 0
-632 633 0
55 447 459 485 616 0
-432 435 0
-630 631 0
-413 414 0
-132 433 438 520 0
-437 467 0
-438 441 0
-480 481 0
222 439 485 522 558 616 0
-440 441 0
-402 403 0
-445 446 0
-446 449 507 573 0
-448 449 0
-145 450 485 575 607 0
-454 458 0
17 324 390 405 407 420 679 0
-455 456 0
-761 763 0
-221 497 0
-456 457 0
-366 389 0
-464 465 0
-388 389 0
-465 466 0
-292 293 302 372 0
-466 467 0
-467 468 0
114 629 735 757 0
-469 489 0
-781 782 0
-581 582 0
-470 471 0
-471 476 0
-472 474 0
-474 475 617 0
239 622 759 0
-478 481 0
-483 484 0
-571 584 0
-486 487 0
-706 707 0
-491 492 645 654 0
-492 493 0
-493 503 0
-494 495 0
